s td 22 7 30
b 1 1 16
b 2 5 9 11
b 3 14 17
b 4 7 24 29
b 5 12 30
b 6 2 4 15
b 7 7 20 24
b 8 8 13 16
b 9 13 16 22
b 10 11 12 20 24
b 11 11 13 22 28
b 12 3 11 15 17 21 24 26
b 13 15 17 21 24 26 27
b 14 4 15 17 21 27
b 15 10 15 26 27
b 16 3 11 12 21 24 26
b 17 3 5 11 12 21
b 18 3 11 15 17 21 26 28
b 19 3 11 13 15 26 28
b 20 6 19
b 21 18 23
b 22 25
1 9
1 20
1 21
1 22
2 17
3 12
4 7
5 16
6 14
7 10
8 9
9 11
10 16
11 19
12 13
12 16
12 18
13 14
13 15
16 17
18 19
